! B3LYP/G 6-31G* NoIter XYZfile
# DFT functional:   B3LYP/G
# Basis:            6-31G*
%pal nprocs 8 end
%base "b3lypSym"
%sym SymThresh 1.0e-1 end
*xyzfile 0 1 C60-Ih.xyz
$new_job
! B3LYP/G 6-31G* Opt UseSym
# DFT functional:   B3LYP/G
# Basis:            6-31G*
%pal nprocs 8 end
%sym SymThresh 1.0e-4 end
%base "b3lypOpt"
*xyzfile 0 1
