

# Structure
#acell 12.6  2.42  6.0 Angstr
#     0.0    0.0 -0.15  # H
acell 1.0 1.0 1.0 Angstr
#scalecart 10.0 10.0 14.7 

rprim  5.76  0.0                 14
      -2.88  4.988306325798367   14 
      -2.88 -4.988306325798367   14 

ntypat 1
znucl 6 
natom 100
typat 100*1
#pp_dirpath               
pseudos "C.psp8" 

xcart
 -2.41550120703694     -0.00000001240578        5.08628320777462     
 -2.77871489391750     -1.16202516804145        4.30266955852614  
 -1.23575207673504      0.00000000754608        5.83832136166728  
 -1.96354414622205     -2.28431439471413        4.30266364831305  
 -1.72177827542426     -2.98255266992950        3.05954440094911  
 -3.16112028052204     -1.41419889918063       -0.62041918306520  
 -2.32141920872211     -2.57312087817766       -0.62063222757273  
 -2.34416531557918     -2.60431545004339        1.85292218317875  
 -3.19856389739339     -1.42561700695119        1.85266875805129  
 -3.36601743118109     -0.71609305176331        3.05867502354523  
 -0.36726021998154     -3.44840311509175        0.62088632658997  
 -1.72818090594142     -3.00551001039773        0.62096034404082  
 0.35976927042738      -3.42533244299261      -3.05952498163812   
 -0.36654850753567     -3.48635707793515       -1.85310936375224  
 -1.75089142418131     -3.03590424003508       -1.85281239241454  
 -2.30298342840423     -2.55944041377672       -3.05881021850268  
 -0.74644966664405      2.29756631398817        5.08639757214684  
 -1.96354397725925      2.28431429105129        4.30266352786028  
 -0.38185560725687      1.17527622505136        5.83797993712725  
 -2.77871481755329      1.16202511105702        4.30266953362322  
 -3.36601735149254      0.71609285642861        3.05867499578033  
 -2.32141872325284      2.57312032693584       -0.62063222984041  
 -3.16111996683644      1.41419851950343       -0.62041917107245  
 -3.19856369051674      1.42561669442094        1.85266870389717  
 -2.34416504117983      2.60431513506213        1.85292206584424  
 -1.72177803956723      2.98255245348819        3.05954428223591  
 -3.38747187455208     -0.71558658653111        0.62083009763202  
 -3.38747176641469      0.71558624759996        0.62083008777630  
 -3.14414374865979     -1.40028502591162       -3.05837419848341  
 -3.42424914729348     -0.72782185090787       -1.85203878995835  
 -3.42424892516385      0.72782157418004       -1.85203877257991  
 -3.14414351547847      1.40028482511027       -3.05837415368139  
 1.95367520561954       1.41990185621626       5.08547158844242   
 1.56474724637914       2.57342669987498       4.30225729051285   
 0.99968108935198       0.72639609762195       5.83779535080202   
 0.24590577868106       3.00289888450511       4.30302883677267   
 -0.35976926943253      3.42533262963977        3.05952493470447  
 1.72818081151535       3.00550958932606      -0.62096031012565   
 0.36726022615548       3.44840295690857      -0.62088635635053   
 0.36654849186300       3.48635691747389       1.85310931543611   
 1.75089128691925       3.03590378869437       1.85281237871286   
 2.30298334210258       2.55944024614718       3.05881026845547   
 -1.72818049531684      3.00550954299973        0.62096028393905  
 -0.36725989393540      3.44840300998384        0.62088635617982  
 -2.30298317204056      2.55944015396169       -3.05881015954717  
 -1.75089102237788      3.03590373325889       -1.85281234928711  
 -0.36654824136350      3.48635691935857       -1.85310931451403  
 0.35976940281736       3.42533260098122      -3.05952497973117   
 1.95367503933720      -1.41990175367920       5.08547145159023   
 2.93032842487647      -0.69355061533405       4.30176981496928   
 0.99968101623879      -0.72639607200022       5.83779529318079   
 2.93032852037401       0.69355071989432       4.30176989660292   
 3.14414374424666       1.40028497931373       3.05837439146309   
 3.38747208133871      -0.71558624864913      -0.62083012908885   
 3.38747218517711       0.71558657732439      -0.62083011302607   
 3.42424921803174       0.72782178668104       1.85203897507675   
 3.42424914497999      -0.72782158871265       1.85203891648747   
 3.14414351916821      -1.40028479949424       3.05837427189939   
 2.32141907504264       2.57312046825981       0.62063226288014   
 3.16112049105991       1.41419881287885       0.62041928196905   
 1.72177819654439       2.98255249983367      -3.05954439161469   
 2.34416527469203       2.60431524541931      -1.85292218859883   
 3.19856407517675       1.42561695148259      -1.85266884178537   
 3.36601767410183       0.71609307371560      -3.05867520809604   
 -0.74644979268149     -2.29756625836500        5.08639759396290  
 0.24590560243924      -3.00289881223858       4.30302881353611   
 -0.38185567724675     -1.17527618734517        5.83797992661126  
 1.56474703227046      -2.57342657583795       4.30225719473632   
 2.30298303781558      -2.55944000511308       3.05881014198001   
 0.36725992682062      -3.44840292512920      -0.62088639295700   
 1.72818045908539      -3.00550928239444      -0.62096035214907   
 1.75089089537896      -3.03590341732679       1.85281229960125   
 0.36654821020149      -3.48635684167970       1.85310930104841   
 -0.35976947296842     -3.42533270056680        3.05952497443998  
 3.16112018425209      -1.41419847572216       0.62041921046584   
 2.32141866559196      -2.57312008396706       0.62063220216577   
 3.36601758663363      -0.71609282990743      -3.05867516665814   
 3.19856387846295      -1.42561663595670      -1.85266882060855   
 2.34416502519452      -2.60431491422787      -1.85292217081494   
 1.72177804849598      -2.98255229352971      -3.05954434431200   
 2.41550134762573       0.00000003754375      -5.08628340197240   
 2.77871495114341      -1.16202507389213      -4.30266967208620   
 1.96354404447582      -2.28431423824990      -4.30266362768320   
 1.23575213084238       0.00000001694564      -5.83832146858717   
 0.74644969848702       2.29756624736088      -5.08639759095971   
 1.96354413372463       2.28431436225958      -4.30266369068375   
 2.77871507776053       1.16202523203924      -4.30266977778477   
 0.38185558374639       1.17527616528762      -5.83797989431346   
 -1.95367528565909      1.41990173487946       -5.08547137591208  
 -1.56474725355779      2.57342666898801       -4.30225725377452  
 -0.24590574146766      3.00289878273519       -4.30302882848419  
 -0.99968121962999      0.72639605295244       -5.83779517728093  
 -1.95367532132193     -1.41990181284091       -5.08547141430337  
 -2.93032867702254     -0.69355071589705       -4.30176972115080  
 -2.93032863166596      0.69355062882842       -4.30176970240871  
 -0.99968121701701     -0.72639608547751       -5.83779518008382  
 0.74644964757097      -2.29756617253936      -5.08639752524689   
 -0.24590580064528     -3.00289874209613       -4.30302882535265  
 -1.56474730347300     -2.57342669000564       -4.30225723080561  
 0.38185556648454      -1.17527611003650      -5.83797980448363  Angstr 


# k-point grid

kptopt 2
ngkpt 1 1 1
nshiftk 1
shiftk 0.5 0.5 0.5

# PW basis

#ecut 30
ecut 2

#Definition of the SCF procedure
nstep 30          # Maximal number of SCF cycles
toldff 1.0d-7     # Will stop when, twice in a row, the difference
                  # between two consecutive evaluations of total energy
                  # differ by less than toldfe (in Hartree)
                  # This value is way too large for most realistic studies of materials

#Definition of occupation numbers
occopt 1

#Optimization of the lattice parameters
optcell 2
ionmov  2
ntime  20
tolmxf 1.0d-5
dilatmx 1.05
ecutsm  0.5

#Controls
prtcif 1

# K-path in reduced coordinates:
# ndivsm 10
# kptopt -4
# kptbounds
#    +0.00000  +0.00000  +0.00000  # $\Gamma$
#    +0.50000  +0.00000  +0.00000  # X
#    +0.50000  +0.50000  +0.00000  # S
#    +0.00000  +0.50000  +0.00000  # Y
#    +0.00000  +0.00000  +0.00000  # $\Gamma$
